Route #1: 51 32 62 47 49 39 10 56 13 52 63 43 37 60 28 35 25 42 4
Route #2: 21 30 50 6 61 31 17 9 46 26 16 57
Route #3: 55 8 59 7 19 24 15 54 44 38 29 18 53 36 48 58 40 2 5
Route #4: 12 34 41 22 33 23
Route #5: 
Route #6: 3 14
Route #7: 20 27 1 45 11
Route #8: 
Route #9: 
cost 2368.57671599601
